CMD:
./solvers/bin/cadical --plain --no-reduce -t 1600 ./data/cnfs//pdtpmstwo/pdtpmstwo.60.cnf

c --- [ banner ] -------------------------------------------------------------
c 
c CaDiCaL SAT Solver
c Copyright (c) 2016-2024
c A. Biere, M. Fleury, N. Froleyks, K. Fazekas, F. Pollitt, T. Faller
c JKU Linz, University of Freiburg, TU Wien
c 
c Version 2.1.3 5296d3d2a9bf48c154ab2acb5e44625776d821bf
c g++ (Gentoo 12.3.1_p20230526 p2) 12.3.1 20230526 -Wall -Wextra -O3 -DNDEBUG
c Sat Aug 9 07:26:21 PDT 2025 Linux cedar2.int.cedar.computecanada.ca 5.14.0-362.24.2.el9_3.x86_64 x86_64
c 
c --- [ limit ] --------------------------------------------------------------
c 
c setting time limit to 1600 seconds real time (due to '-t 1600')
c 
c --- [ parsing input ] ------------------------------------------------------
c 
c reading DIMACS file from './data/cnfs//pdtpmstwo/pdtpmstwo.60.cnf'
c opening file to read './data/cnfs//pdtpmstwo/pdtpmstwo.60.cnf'
c found 'p cnf 45000 133511' header
c parsed 133511 clauses in 0.02 seconds process time
c 
c --- [ options ] ------------------------------------------------------------
c 
c   --compact=false                (different from default 'true')
c   --decompose=false              (different from default 'true')
c   --deduplicate=false            (different from default 'true')
c   --elim=false                   (different from default 'true')
c   --probe=false                  (different from default 'true')
c   --reduce=false                 (different from default 'true')
c   --subsume=false                (different from default 'true')
c   --ternary=false                (different from default 'true')
c   --transred=false               (different from default 'true')
c   --vivify=false                 (different from default 'true')
c 
c --- [ solving ] ------------------------------------------------------------
c 
c time measured in process time since initialization
c 
c  seconds  reductions  redundant  irredundant
c         MB    restarts       trail       variables
c          level   conflicts       glue         remaining
c 
c *  0.02 22  0 0   0    0    0  0% 0 113590 25758 57%
c {  0.02 23  0 0   0    0    0  0% 0 113590 25758 57%
c i  0.03 23 13 0  39  377  311 44% 5 113590 25757 57%
c i  0.03 23 14 0  39  380  312 45% 5 113590 25755 57%
c i  0.03 23 15 0  39  381  312 45% 5 113590 25754 57%
c i  0.03 23 15 0  39  382  312 45% 5 113590 25753 57%
c i  0.03 23 26 0  39  423  348 50% 5 113590 25750 57%
c i  0.03 23 27 0  39  429  353 51% 5 113590 25749 57%
c i  0.03 23 27 0  39  430  353 51% 5 113590 25748 57%
c i  0.03 23 28 0  39  431  353 51% 5 113590 25747 57%
c i  0.03 23 28 0  39  432  353 51% 5 113590 25746 57%
c i  0.03 23 28 0  39  433  353 51% 5 113590 25745 57%
c i  0.03 23 34 0  39  460  377 54% 5 113590 25738 57%
c i  0.03 23 39 0  39  483  396 56% 5 113590 25734 57%
c i  0.03 23 40 0  39  491  401 57% 5 113590 25726 57%
c i  0.03 23 41 0  39  496  404 57% 5 113590 25722 57%
c i  0.03 23 45 0  40  518  424 59% 5 113590 25721 57%
c i  0.03 23 45 0  40  519  424 59% 5 113590 25718 57%
c i  0.03 23 45 0  42  525  429 58% 5 113590 25714 57%
c i  0.03 23 44 0  43  529  431 58% 5 113590 25713 57%
c 
c  seconds  reductions  redundant  irredundant
c         MB    restarts       trail       variables
c          level   conflicts       glue         remaining
c 
c i  0.03 23 44 0  43  530  431 58% 5 113590 25712 57%
c i  0.03 23 44 0  43  531  431 58% 5 113590 25711 57%
c i  0.03 23 44 0  43  532  431 58% 5 113590 25710 57%
c i  0.03 23 44 0  43  545  443 58% 5 113590 25709 57%
c i  0.03 23 44 0  43  553  450 58% 5 113590 25708 57%
c i  0.03 23 44 0  43  557  453 58% 5 113590 25707 57%
c i  0.03 23 43 0  43  559  454 58% 5 113590 25706 57%
c i  0.03 23 42 0  45  598  487 57% 5 113590 25705 57%
c i  0.03 23 42 0  45  602  490 57% 5 113590 25704 57%
c i  0.03 23 41 0  45  626  513 56% 5 113590 25703 57%
c i  0.04 23 41 0  45  629  515 56% 5 113590 25702 57%
c i  0.04 23 41 0  45  636  521 56% 5 113590 25701 57%
c i  0.04 23 64 0  51  829  703 64% 4 113590 25696 57%
c i  0.04 23 64 0  51  830  703 64% 4 113590 25693 57%
c i  0.04 23 64 0  51  832  704 64% 4 113590 25686 57%
c i  0.04 23 64 0  51  833  704 64% 4 113590 25681 57%
c i  0.04 23 64 0  51  834  704 64% 4 113590 25676 57%
c i  0.04 23 64 0  51  835  704 64% 4 113590 25675 57%
c i  0.04 23 64 0  51  836  704 64% 4 113590 25674 57%
c i  0.04 23 64 0  51  837  704 64% 4 113590 25670 57%
c 
c  seconds  reductions  redundant  irredundant
c         MB    restarts       trail       variables
c          level   conflicts       glue         remaining
c 
c i  0.04 23 64 0  51  839  703 64% 4 113590 25669 57%
c i  0.04 23 64 0  51  840  703 64% 4 113590 25666 57%
c i  0.04 23 64 0  51  841  703 64% 4 113590 25662 57%
c i  0.04 23 64 0  51  842  703 64% 4 113590 25661 57%
... skipped 62 lines ...
c i  0.09 24 46 0  52 3413 3058 57% 4 113590 25478 57%
c i  0.09 24 46 0  52 3420 3061 57% 4 113590 25477 57%
c i  0.09 24 46 0  52 3424 3062 57% 4 113590 25474 57%
c i  0.09 24 46 0  53 3496 3120 56% 4 113590 25465 57%
c 
c  seconds  reductions  redundant  irredundant
c         MB    restarts       trail       variables
c          level   conflicts       glue         remaining
c 
c i  0.09 24 46 0  53 3497 3120 56% 4 113590 25464 57%
c i  0.09 24 45 0  56 3508 3130 56% 4 113590 25459 57%
c i  0.09 24 45 0  56 3509 3130 56% 4 113590 25458 57%
c i  0.09 24 45 0  56 3513 3133 56% 4 113590 25457 57%
c i  0.09 24 45 0  56 3514 3133 56% 4 113590 25453 57%
c i  0.10 24 45 0  56 3527 3143 56% 4 113590 25450 57%
c i  0.10 24 45 0  56 3528 3143 56% 4 113590 25445 57%
c i  0.10 24 45 0  56 3531 3144 56% 4 113590 25425 56%
c i  0.10 24 45 0  56 3545 3157 56% 4 113590 25424 56%
c i  0.10 24 45 0  56 3546 3157 56% 4 113590 25423 56%
c i  0.10 24 44 0  56 3550 3158 56% 4 113590 25422 56%
c i  0.10 24 44 0  56 3552 3158 56% 4 113590 25396 56%
c i  0.10 24 44 0  56 3554 3159 56% 4 113590 25395 56%
c i  0.10 24 44 0  56 3560 3164 56% 4 113590 25394 56%
c i  0.10 24 44 0  56 3568 3171 56% 4 113590 25391 56%
c i  0.10 24 44 0  56 3569 3171 56% 4 113590 25385 56%
c i  0.10 24 44 0  56 3574 3175 56% 4 113590 25376 56%
c i  0.10 24 44 0  56 3575 3175 56% 4 113590 25365 56%
c i  0.10 24 44 0  56 3576 3175 56% 4 113590 25359 56%
c i  0.10 24 44 0  56 3577 3175 56% 4 113590 25327 56%
c 
c  seconds  reductions  redundant  irredundant
c         MB    restarts       trail       variables
c          level   conflicts       glue         remaining
c 
c i  0.10 24 44 0  56 3581 3177 56% 4 113590 25326 56%
c i  0.10 24 44 0  56 3582 3177 56% 4 113590 25319 56%
c i  0.10 24 44 0  56 3583 3177 56% 4 113590 25318 56%
c i  0.10 24 44 0  56 3584 3177 56% 4 113590 25307 56%
c i  0.10 24 44 0  56 3586 3178 56% 4 113590 25296 56%
c i  0.10 24 44 0  56 3596 3182 56% 4 113590 25275 56%
c i  0.10 24 43 0  56 3623 3205 56% 4 113590 25193 56%
c i  0.10 24 43 0  56 3626 3206 56% 4 113590 25183 56%
c i  0.10 24 43 0  56 3629 3206 56% 4 113590 25157 56%
c i  0.10 24 43 0  56 3631 3207 56% 4 113590 25153 56%
c i  0.10 24 43 0  56 3633 3207 56% 4 113590 25151 56%
c i  0.10 24 43 0  56 3634 3207 56% 4 113590 25150 56%
c }  0.10 24 43 0  56 3636 3207 56% 4 113590 25005 56%
c 0  0.10 24 43 0  56 3636 3207 56% 4 113590 25005 56%
c 
c --- [ result ] -------------------------------------------------------------
c 
s UNSATISFIABLE
c 
c --- [ run-time profiling ] -------------------------------------------------
c 
c process time taken by individual solving procedures
c (percentage relative to process time for solving)
c 
c         0.08   99.91% search
c         0.04   54.42% stable
c         0.03   45.05% unstable
c         0.02   28.03% parse
c         0.00    0.38% lucky
c         0.00    0.00% simplify
c   =================================
c         0.08   77.69% solve
c 
c last line shows process time for solving
c (percentage relative to total process time)
c 
c --- [ statistics ] ---------------------------------------------------------
c 
c chronological:              1763        48.49 %  of conflicts
c conflicts:                  3636     48407.71    per second
c decisions:                  9969    132721.80    per second
c fixed:                     19995        44.43 %  of all variables
c learned:                    3551        97.66 %  per conflict
c learned_lits:              47865       100.00 %  learned literals
c minimized:                     0         0.00 %  learned literals
c shrunken:                   5509        11.51 %  learned literals
c minishrunken:               6891        14.40 %  learned literals
c otfs:                         30         0.83 %  of conflict
c propagations:             821325        10.93 M  per second
c rephased:                      2      1818.00    interval
c restarts:                     56        64.93    interval
c stabilizing:                   1        54.98 %  of conflicts
c subsumed:                    216         0.18 %  of all clauses
c strengthened:                 29         0.02 %  of all clauses
c 
c seconds are measured in process time for solving
c 
c --- [ resources ] ----------------------------------------------------------
c 
c total process time since initialization:         0.10    seconds
c total real time since initialization:            0.10    seconds
c maximum resident set size of process:           35.06    MB
c 
c --- [ shutting down ] ------------------------------------------------------
c 
c exit 20
